NumberOfAtoms    72           # Number of atoms
NumberOfSpecies  2           # Number of species

%block ChemicalSpeciesLabel
 1 7 N
 2 6 C
%endblock ChemicalSpeciesLabel

#(3) Lattice, coordinates, k-sampling

LatticeConstant       1.000000000 Ang
%block LatticeVectors
   14.784999847     0.000000000     0.000000000
    7.393000126    12.805051838     0.000000000
    0.000000000     0.000000000    10.000000000
%endblock LatticeVectors

AtomicCoordinatesFormat Ang
%block AtomicCoordinatesAndAtomicSpecies
     1.182995394     0.699025273     0.000000000    1    1
    18.431850523     9.235332969     0.000000000    1    2
     6.110840994     0.699025273     0.000000000    1    3
    11.039686432     0.699025273     0.000000000    1    4
     3.647116646     4.967179527     0.000000000    1    5
     8.574961860     4.967179527     0.000000000    1    6
     6.111237484     9.235332969     0.000000000    1    7
    13.503807739     4.967179527     0.000000000    1    8
    11.040082922     9.235332969     0.000000000    1    9
     2.414989843     1.410050883     0.000000000    2   10
    17.199990098    11.369411598     0.000000000    2   11
    18.431983252    12.080436588     0.000000000    2   12
    19.663845440     9.946359485     0.000000000    2   13
    17.199792087     7.101256629     0.000000000    2   14
    18.431784800     7.812282382     0.000000000    2   15
    15.967731448     4.967179527     0.000000000    2   16
    17.199725923     5.678205279     0.000000000    2   17
    14.735669817     2.833102233     0.000000000    2   18
    15.967665064     3.544127795     0.000000000    2   19
    14.736067271    11.369411598     0.000000000    2   20
    15.968061306    12.080436588     0.000000000    2   21
     3.646918387     0.699025273     0.000000000    2   22
     4.878913000     1.410050883     0.000000000    2   23
     7.342835387     1.410050883     0.000000000    2   24
     8.574763381     0.699025273     0.000000000    2   25
     9.806758655     1.410050883     0.000000000    2   26
    12.271681707     1.410050883     0.000000000    2   27
    13.503609260     0.699025273     0.000000000    2   28
    14.735603653     1.410050883     0.000000000    2   29
     2.415055896     2.833102233     0.000000000    2   30
     3.647050372     3.544127795     0.000000000    2   31
     4.878978944     2.833102233     0.000000000    2   32
     6.110973089     3.544127795     0.000000000    2   33
     7.342901551     2.833102233     0.000000000    2   34
     8.574895917     3.544127795     0.000000000    2   35
     9.807824162     2.833102233     0.000000000    2   36
    11.039818528     3.544127795     0.000000000    2   37
    12.271747870     2.833102233     0.000000000    2   38
    13.503741355     3.544127795     0.000000000    2   39
     4.879111232     5.678205279     0.000000000    2   40
     6.111039473     4.967179527     0.000000000    2   41
     7.343033949     5.678205279     0.000000000    2   42
     9.806956776     5.678205279     0.000000000    2   43
    11.039884911     4.967179527     0.000000000    2   44
    12.271879387     5.678205279     0.000000000    2   45
     4.879177395     7.101256629     0.000000000    2   46
     6.111171761     7.812282382     0.000000000    2   47
     7.343099892     7.101256629     0.000000000    2   48
     8.575094148     7.812282382     0.000000000    2   49
     9.808022283     7.101256629     0.000000000    2   50
    11.040017199     7.812282382     0.000000000    2   51
     7.343231960     9.946359485     0.000000000    2   52
     8.575160091     9.235332969     0.000000000    2   53
     9.807155228     9.946359485     0.000000000    2   54
     7.343298344    11.369411598     0.000000000    2   55
     8.575292489    12.080436588     0.000000000    2   56
     9.808220734    11.369411598     0.000000000    2   57
    11.040215651    12.080436588     0.000000000    2   58
    14.735802215     5.678205279     0.000000000    2   59
    12.271945551     7.101256629     0.000000000    2   60
    13.503940027     7.812282382     0.000000000    2   61
    12.272077839     9.946359485     0.000000000    2   62
    14.735868378     7.101256629     0.000000000    2   63
    15.967863736     7.812282382     0.000000000    2   64
    13.504005750     9.235332969     0.000000000    2   65
    14.736000666     9.946359485     0.000000000    2   66
    12.272144443    11.369411598     0.000000000    2   67
    13.504138038    12.080436588     0.000000000    2   68
    15.967929458     9.235332969     0.000000000    2   69
    17.199924375     9.946359485     0.000000000    2   70
    19.664913149    11.369411598     0.000000000    2   71
    20.896906304    12.080436588     0.000000000    2   72
%endblock AtomicCoordinatesAndAtomicSpecies
