NumberOfAtoms    72           # Number of atoms
NumberOfSpecies  2           # Number of species

%block ChemicalSpeciesLabel
 1 7 N
 2 6 C
%endblock ChemicalSpeciesLabel

#(3) Lattice, coordinates, k-sampling

LatticeConstant       1.000000000 Ang
%block LatticeVectors
   14.784999847     0.000000000     0.000000000
    7.392499924    12.804185463     0.000000000
    0.000000000     0.000000000    10.000000000
%endblock LatticeVectors

AtomicCoordinatesFormat Ang
%block AtomicCoordinatesAndAtomicSpecies
     1.182968088     0.698977978     0.000000000    1    1
     3.646891081     0.698977978     0.000000000    1    2
     2.414934762     1.409955480     0.000000000    2    3
    17.199545976    11.368642357     0.000000000    2    4
    18.431511355    12.079619239     0.000000000    2    5
    18.431489765     9.234708117     0.000000000    2    6
    19.663456907     9.945686525     0.000000000    2    7
    17.199514691     7.100776166     0.000000000    2    8
    18.431479630     7.811753812     0.000000000    2    9
    15.967537415     4.966843453     0.000000000    2   10
    17.199504116     5.677821098     0.000000000    2   11
    14.735559147     2.832910549     0.000000000    2   12
    15.967526620     3.543888003     0.000000000    2   13
    14.735623149    11.368642357     0.000000000    2   14
    15.967589409    12.079619239     0.000000000    2   15
     4.878857920     1.409955480     0.000000000    2   16
     6.110813688     0.698977978     0.000000000    2   17
     7.342780307     1.409955480     0.000000000    2   18
     8.574736075     0.698977978     0.000000000    2   19
     9.806703575     1.409955480     0.000000000    2   20
    11.039659126     0.698977978     0.000000000    2   21
    12.271626626     1.409955480     0.000000000    2   22
    13.503581954     0.698977978     0.000000000    2   23
    14.735548572     1.409955480     0.000000000    2   24
     2.414945227     2.832910549     0.000000000    2   25
     3.646911928     3.543888003     0.000000000    2   26
     4.878868275     2.832910549     0.000000000    2   27
     6.110834645     3.543888003     0.000000000    2   28
     7.342790882     2.832910549     0.000000000    2   29
     8.574757473     3.543888003     0.000000000    2   30
     9.807713493     2.832910549     0.000000000    2   31
    11.039680084     3.543888003     0.000000000    2   32
    12.271637201     2.832910549     0.000000000    2   33
    13.503602911     3.543888003     0.000000000    2   34
     3.646922613     4.966843453     0.000000000    2   35
     4.878889425     5.677821098     0.000000000    2   36
     6.110845441     4.966843453     0.000000000    2   37
     7.342812142     5.677821098     0.000000000    2   38
     8.574767828     4.966843453     0.000000000    2   39
     9.806734969     5.677821098     0.000000000    2   40
    11.039690879     4.966843453     0.000000000    2   41
    12.271657580     5.677821098     0.000000000    2   42
     4.878900000     7.100776166     0.000000000    2   43
     6.110866591     7.811753812     0.000000000    2   44
     7.342822497     7.100776166     0.000000000    2   45
     8.574788978     7.811753812     0.000000000    2   46
     9.807744887     7.100776166     0.000000000    2   47
    11.039712029     7.811753812     0.000000000    2   48
     6.110876725     9.234708117     0.000000000    2   49
     7.342843427     9.945686525     0.000000000    2   50
     8.574799332     9.234708117     0.000000000    2   51
     9.806766695     9.945686525     0.000000000    2   52
     7.342854222    11.368642357     0.000000000    2   53
     8.574820593    12.079619239     0.000000000    2   54
     9.807776612    11.368642357     0.000000000    2   55
    11.039743754    12.079619239     0.000000000    2   56
    13.503613706     4.966843453     0.000000000    2   57
    14.735580408     5.677821098     0.000000000    2   58
    12.271668155     7.100776166     0.000000000    2   59
    13.503634857     7.811753812     0.000000000    2   60
    11.039722164     9.234708117     0.000000000    2   61
    12.271689305     9.945686525     0.000000000    2   62
    14.735590983     7.100776166     0.000000000    2   63
    15.967558565     7.811753812     0.000000000    2   64
    13.503644991     9.234708117     0.000000000    2   65
    14.735612133     9.945686525     0.000000000    2   66
    12.271700321    11.368642357     0.000000000    2   67
    13.503666141    12.079619239     0.000000000    2   68
    15.967568700     9.234708117     0.000000000    2   69
    17.199535842     9.945686525     0.000000000    2   70
    19.664469028    11.368642357     0.000000000    2   71
    20.896434407    12.079619239     0.000000000    2   72
%endblock AtomicCoordinatesAndAtomicSpecies
