NumberOfAtoms    72           # Number of atoms
NumberOfSpecies  2           # Number of species

%block ChemicalSpeciesLabel
 1 6 C
 2 7 N
%endblock ChemicalSpeciesLabel

#(3) Lattice, coordinates, k-sampling

LatticeConstant       1.000000000 Ang
%block LatticeVectors
   14.784999847     0.000000000     0.000000000
    7.393000126    12.805051838     0.000000000
    0.000000000     0.000000000    10.000000000
%endblock LatticeVectors

AtomicCoordinatesFormat Ang
%block AtomicCoordinatesAndAtomicSpecies
     1.182995394     0.699025273     0.000000000    1    1
     2.414989843     1.410050883     0.000000000    1    2
    17.199990098    11.369411598     0.000000000    1    3
    18.431983252    12.080436588     0.000000000    1    4
    18.431850523     9.235332969     0.000000000    1    5
    19.663845440     9.946359485     0.000000000    1    6
    17.199792087     7.101256629     0.000000000    1    7
    18.431784800     7.812282382     0.000000000    1    8
    15.967731448     4.967179527     0.000000000    1    9
    17.199725923     5.678205279     0.000000000    1   10
    14.735669817     2.833102233     0.000000000    1   11
    15.967665064     3.544127795     0.000000000    1   12
    14.736067271    11.369411598     0.000000000    1   13
    15.968061306    12.080436588     0.000000000    1   14
     3.646918387     0.699025273     0.000000000    1   15
     4.878913000     1.410050883     0.000000000    1   16
     6.110840994     0.699025273     0.000000000    1   17
     7.342835387     1.410050883     0.000000000    1   18
     8.574763381     0.699025273     0.000000000    1   19
     9.806758655     1.410050883     0.000000000    1   20
    12.271681707     1.410050883     0.000000000    1   21
    13.503609260     0.699025273     0.000000000    1   22
    14.735603653     1.410050883     0.000000000    1   23
     3.647050372     3.544127795     0.000000000    1   24
     4.878978944     2.833102233     0.000000000    1   25
     6.110973089     3.544127795     0.000000000    1   26
     7.342901551     2.833102233     0.000000000    1   27
     8.574895917     3.544127795     0.000000000    1   28
     9.807824162     2.833102233     0.000000000    1   29
    12.271747870     2.833102233     0.000000000    1   30
    13.503741355     3.544127795     0.000000000    1   31
     4.879111232     5.678205279     0.000000000    1   32
     6.111039473     4.967179527     0.000000000    1   33
     7.343033949     5.678205279     0.000000000    1   34
     9.806956776     5.678205279     0.000000000    1   35
    11.039884911     4.967179527     0.000000000    1   36
    12.271879387     5.678205279     0.000000000    1   37
     4.879177395     7.101256629     0.000000000    1   38
     6.111171761     7.812282382     0.000000000    1   39
     7.343099892     7.101256629     0.000000000    1   40
     8.575094148     7.812282382     0.000000000    1   41
     9.808022283     7.101256629     0.000000000    1   42
    11.040017199     7.812282382     0.000000000    1   43
     7.343231960     9.946359485     0.000000000    1   44
     8.575160091     9.235332969     0.000000000    1   45
     9.807155228     9.946359485     0.000000000    1   46
     7.343298344    11.369411598     0.000000000    1   47
     8.575292489    12.080436588     0.000000000    1   48
     9.808220734    11.369411598     0.000000000    1   49
    11.040215651    12.080436588     0.000000000    1   50
    14.735802215     5.678205279     0.000000000    1   51
    12.271945551     7.101256629     0.000000000    1   52
    13.503940027     7.812282382     0.000000000    1   53
    12.272077839     9.946359485     0.000000000    1   54
    14.735868378     7.101256629     0.000000000    1   55
    15.967863736     7.812282382     0.000000000    1   56
    13.504005750     9.235332969     0.000000000    1   57
    14.736000666     9.946359485     0.000000000    1   58
    12.272144443    11.369411598     0.000000000    1   59
    13.504138038    12.080436588     0.000000000    1   60
    17.199924375     9.946359485     0.000000000    1   61
    19.664913149    11.369411598     0.000000000    1   62
    20.896906304    12.080436588     0.000000000    1   63
    11.039686432     0.699025273     0.000000000    2   64
     2.415055896     2.833102233     0.000000000    2   65
    11.039818528     3.544127795     0.000000000    2   66
     3.647116646     4.967179527     0.000000000    2   67
     8.574961860     4.967179527     0.000000000    2   68
     6.111237484     9.235332969     0.000000000    2   69
    13.503807739     4.967179527     0.000000000    2   70
    11.040082922     9.235332969     0.000000000    2   71
    15.967929458     9.235332969     0.000000000    2   72
%endblock AtomicCoordinatesAndAtomicSpecies
