# STRUCTURE 

NumberOfAtoms        72
NumberOfSpecies      2

%block ChemicalSpeciesLabel
  1 5 B
  2 6 C
%endblock ChemicalSpeciesLabel

LatticeConstant   1.0 Ang
%block LatticeVectors
   12.804618608     7.392750000     0.000000000
    0.000000000    14.785500000     0.000000000
    0.000000000     0.000000000    10.000000000
%endblock LatticeVectors

AtomicCoordinatesFormat  Fractional 
%block AtomicCoordinatesAndAtomicSpecies
   -0.097292012     0.574552042     0.000000000   1   1
   -0.097292012     0.670772867    -0.000000000   1   2
   -0.001066967     0.670777087     0.000000000   1   3
   -0.001066967     0.766997912    -0.000000000   1   4
   -0.097292012     0.863227177     0.000000000   1   5
   -0.097292012     0.959448001    -0.000000000   1   6
   -0.001066967     0.959452222     0.000000000   1   7
   -0.001066967     1.055673046    -0.000000000   1   8
   -0.097292012     1.151902311     0.000000000   1   9
   -0.097292012     1.248123136    -0.000000000   1   10
   -0.001066967     0.093426818     0.000000000   2   11
   -0.001066967     0.189647642    -0.000000000   2   12
   -0.097292012     1.440577446     0.000000000   2   13
   -0.097292012     1.536798270    -0.000000000   2   14
    0.095158078     1.344352401     0.000000000   2   15
    0.095158078     1.440573226    -0.000000000   2   16
    0.191383123     1.151902311     0.000000000   2   17
    0.191383123     1.248123136    -0.000000000   2   18
    0.287608167     0.959452222     0.000000000   2   19
    0.287608167     1.055673046    -0.000000000   2   20
    0.383833212     0.767002132     0.000000000   2   21
    0.383833212     0.863222956    -0.000000000   2   22
   -0.193517057     1.344352401     0.000000000   2   23
   -0.193517057     1.440573226    -0.000000000   2   24
    0.095158078     0.189651863     0.000000000   2   25
    0.095158078     0.285872687    -0.000000000   2   26
    0.191383123     0.285876908     0.000000000   2   27
    0.191383123     0.382097732    -0.000000000   2   28
    0.287608167     0.382101952     0.000000000   2   29
    0.287608167     0.478322777    -0.000000000   2   30
    0.383833212     0.478326997     0.000000000   2   31
    0.383833212     0.574547822    -0.000000000   2   32
    0.480058257     0.574552042     0.000000000   2   33
    0.480058257     0.670772867    -0.000000000   2   34
   -0.097292012     0.285876908     0.000000000   2   35
   -0.097292012     0.382097732    -0.000000000   2   36
   -0.001066967     0.382101952     0.000000000   2   37
   -0.001066967     0.478322777    -0.000000000   2   38
    0.095158078     0.478326997     0.000000000   2   39
    0.095158078     0.574547822    -0.000000000   2   40
    0.191383123     0.574552042     0.000000000   2   41
    0.191383123     0.670772867    -0.000000000   2   42
    0.287608167     0.670777087     0.000000000   2   43
    0.287608167     0.766997912    -0.000000000   2   44
   -0.193517057     0.478326997     0.000000000   2   45
   -0.193517057     0.574547822    -0.000000000   2   46
    0.095158078     0.767002132     0.000000000   2   47
    0.095158078     0.863222956    -0.000000000   2   48
   -0.289742102     0.670777087     0.000000000   2   49
   -0.289742102     0.766997912    -0.000000000   2   50
   -0.193517057     0.767002132     0.000000000   2   51
   -0.193517057     0.863222956    -0.000000000   2   52
   -0.385967147     0.863227177     0.000000000   2   53
   -0.385967147     0.959448001    -0.000000000   2   54
   -0.289742102     0.959452222     0.000000000   2   55
   -0.289742102     1.055673046    -0.000000000   2   56
   -0.482192192     1.055677267     0.000000000   2   57
   -0.482192192     1.151898091    -0.000000000   2   58
   -0.385967147     1.151902311     0.000000000   2   59
   -0.385967147     1.248123136    -0.000000000   2   60
    0.191383123     0.863227177     0.000000000   2   61
    0.191383123     0.959448001    -0.000000000   2   62
   -0.193517057     1.055677267     0.000000000   2   63
   -0.193517057     1.151898091    -0.000000000   2   64
    0.095158078     1.055677267     0.000000000   2   65
    0.095158078     1.151898091    -0.000000000   2   66
   -0.289742102     1.248127356     0.000000000   2   67
   -0.289742102     1.344348181    -0.000000000   2   68
   -0.001066967     1.248127356     0.000000000   2   69
   -0.001066967     1.344348181    -0.000000000   2   70
   -0.001066967     1.536802491     0.000000000   2   71
   -0.001066967     1.633023315    -0.000000000   2   72
%endblock AtomicCoordinatesAndAtomicSpecies 
